Score: 104800
2200 21 15 18
2200 17 12 10
2200 20 19 14
2200 22 16
1600 24
1600 13
1600 11
1600 23
3400 5
4000 1
3400 0 19
5800 28
9800 2 6
6800 7
5800 4
8200 3 15
6800 9
5000 25
9400 8
10600 27
10600 26
